WARNING: for repeatability, setting FPU to use double precision
============================[ Problem Statistics ]=============================
|                                                                             |
|  Number of variables:           231                                         |
|  Number of clauses:            1880                                         |
|  Parse time:                   0.00 s                                       |
|                                                                             |
c ============================[ Search Statistics ]==============================
c | Conflicts |          ORIGINAL         |          LEARNT          | Progress |
c |           |    Vars  Clauses Literals |    Limit  Clauses Lit/Cl |          |
c ===============================================================================
c Switched to VSIDS.
c Switched to LRB.
c Switched to VSIDS.
c Switched to LRB.
c Switched to VSIDS.
c Switched to LRB.
c Switched to VSIDS.
c Switched to LRB.
c Switched to VSIDS.
c Switched to LRB.
c Switched to VSIDS.
c Switched to LRB.
c Switched to VSIDS.
c Switched to LRB.
c Switched to VSIDS.
c Switched to LRB.
c Switched to VSIDS.
c Switched to LRB.
c Switched to VSIDS.
c Switched to LRB.
c Switched to VSIDS.
c Switched to LRB.
c Switched to VSIDS.
c Switched to LRB.
c Switched to VSIDS.
c Switched to LRB.
c Switched to VSIDS.
c Switched to LRB.
c Switched to VSIDS.
c Switched to LRB.
c Switched to VSIDS.
c Switched to LRB.
c Switched to VSIDS.
c Switched to LRB.
c Switched to VSIDS.
c ===============================================================================
restarts                  : 30429
conflicts                 : 14196461       (5597 /sec)
decisions                 : 16365080       (0.00 % random) (6452 /sec)
propagations              : 8775835533     (3460083 /sec)
conflict literals         : 617172091      (18.84 % deleted)

conflicts w/ DIP found    : 5490608        (38.68 % of conflicts)
conflicts w/ dangerous DIP: 0              (0.00 % of conflicts)
conflicts w/ DIP-learning : 176238         (1.24 % of conflicts)
decisions on ext vars     : 35373          (0.22 % of decisions)
total ext vars            : 53413       
tried delete ext vars     : 53087       
deleted ext vars          : 53036       
max ext vars              : 1005        

Memory used               : 117.00 MB
CPU time                  : 2536.31 s
DIP computation time      : 56.5974 s (2.23 % of total time)
ER_sel time               : 15.0741 s
ER_add time               : 0.167255 s
ER_delC time              : 0 s
ER_delV time              : 1.54503 s
ER_sub time               : 18.215 s
ER_stat time              : 0 s

UNSATISFIABLE
